17	4
17	18	20	18	
0	0	0	0	0	3	2	3	4	
2	3	5	1	1	2	6	17	
8	7	2	10	6	3	8	10	11	
2	8	1	5	2	2	5	12	
1	5	9	9	2	1	16	
250	9	6	1	8	2	7	17	
175	1	7	5	9	1	9	
175	7	7	8	1	1	17	
175	6	3	6	7	2	13	17	
175	5	1	6	3	3	14	17	17	
100	1	9	10	3	1	17	
150	6	7	10	6	3	15	17	17	
4	10	9	2	10	1	17	
1	10	8	4	9	1	17	
7	3	7	9	4	2	17	17	
10	10	10	8	3	1	17	
0	0	0	0	0	0	
